% Graph Number 1 , Number Of Nodes 25 , Number Of Edges = 137
25 25 137
2 1
3 2
4 1
4 2
5 1
5 3
6 1
6 4
7 2
7 3
7 6
8 2
8 5
8 7
9 4
9 5
10 1
10 2
10 3
10 4
10 9
11 1
11 2
11 3
11 4
11 6
11 8
11 10
12 1
12 5
12 8
12 9
13 3
13 4
13 5
13 7
13 9
13 11
13 12
14 8
14 9
14 12
15 1
15 3
15 6
15 10
15 12
16 1
16 2
16 3
16 4
16 5
16 6
16 7
16 8
16 10
16 12
16 14
16 15
17 1
17 6
17 7
17 10
17 12
17 14
17 15
18 4
18 5
18 6
18 12
18 13
18 14
18 16
18 17
19 1
19 2
19 7
19 8
19 10
19 12
19 14
19 18
20 1
20 3
20 4
20 5
20 6
20 7
20 9
20 10
20 14
20 16
21 2
21 3
21 4
21 8
21 11
21 13
21 15
21 16
21 18
21 20
22 1
22 6
22 7
22 11
22 12
22 15
22 16
22 17
22 18
22 19
22 20
22 21
23 1
23 14
23 19
24 1
24 8
24 9
24 10
24 11
24 12
24 13
24 14
24 15
24 17
24 20
24 23
25 3
25 4
25 6
25 7
25 11
25 16
25 18
25 20
